results/res_prop_muc/res_Cimatti_mathsat_cores/QF_UF/SEQ042_size2.smt.smt2.res
unsat
( _c0
  _c10
  _c11
  _c13
  _c14
  _c15
  _c20
  _c21
  _c23
  _c24
  _c25
  _c26
  _c27
  _c28
  _c32
  _c37
  _c38
  _c41
  _c42
  _c44
  _c46
  _c47
  _c48
  _c49
  _c5
  _c7
  _c8
  _c9 )
